p wcnf 159 80 81 
1 16 34 0 
1 -71 -102 0 
1 -150 -21 0 
1 -10 117 0 
1 26 -117 0 
1 -67 -139 0 
1 52 -37 0 
1 -159 -113 0 
1 -130 -75 0 
1 32 -29 0 
1 -77 -128 0 
1 -48 141 0 
1 -50 154 0 
1 -155 106 0 
1 -33 47 0 
1 -12 -52 0 
1 -153 56 0 
1 34 -95 0 
1 69 -6 0 
1 -13 -54 0 
1 -59 20 0 
1 28 5 0 
1 96 -57 0 
1 -90 -155 0 
1 -85 -106 0 
1 35 -34 0 
1 47 81 0 
1 111 -125 0 
1 -87 34 0 
1 108 -124 0 
1 -49 -66 0 
1 -20 140 0 
1 123 125 0 
1 -135 128 0 
1 -137 94 0 
1 -83 114 0 
1 51 -141 0 
1 69 32 0 
1 63 -116 0 
1 -144 84 0 
1 -71 -146 0 
1 -83 11 0 
1 -120 115 0 
1 -32 48 0 
1 -122 17 0 
1 -93 -59 0 
1 -46 37 0 
1 62 -46 0 
1 -57 -44 0 
1 -117 -37 0 
1 -103 10 0 
1 -4 -85 0 
1 -10 64 0 
1 110 65 0 
1 93 -119 0 
1 158 -123 0 
1 -69 -11 0 
1 114 135 0 
1 -58 -133 0 
1 41 -105 0 
1 -76 97 0 
1 -143 47 0 
1 38 -142 0 
1 111 -92 0 
1 -62 159 0 
1 10 -117 0 
1 -140 -29 0 
1 59 -15 0 
1 22 -103 0 
1 143 -154 0 
1 66 132 0 
1 104 12 0 
1 158 -84 0 
1 -4 104 0 
1 89 101 0 
1 83 120 0 
1 -77 13 0 
1 150 3 0 
1 110 -36 0 
1 130 -22 0 
